NAME : kroA100-C-5-1-a__cluster_same_priority_ls__24553.tour
COMMENT : Length = 24553.000
COMMENT : Generated by compare_sota_instances.py for cluster_same_priority_ls
TYPE : TOUR
DIMENSION : 100
TOUR_SECTION
12
27
35
86
20
62
60
77
1
98
23
91
45
32
11
15
17
59
74
21
72
47
90
92
8
42
89
31
80
56
97
75
19
4
65
26
66
70
22
94
16
88
53
79
18
24
38
99
36
84
10
49
6
63
93
28
67
58
69
64
40
54
2
44
50
82
95
13
76
33
37
5
52
78
96
39
85
68
73
81
25
61
51
87
57
9
7
55
83
34
29
46
43
3
14
71
41
100
48
30
-1
EOF
